certificates/rado_a11_c256_N27.cnf
c Rad2 upper bound instance: x1 + 11*x2 - x3 = 256, interval [1,27]
p cnf 27 132
1 9 24 0
-1 -9 -24 0
1 20 25 0
-1 -20 -25 0
2 10 24 0
-2 -10 -24 0
2 21 25 0
-2 -21 -25 0
3 11 24 0
-3 -11 -24 0
3 22 25 0
-3 -22 -25 0
1 4 23 0
-1 -4 -23 0
4 12 24 0
-4 -12 -24 0
4 23 25 0
-4 -23 -25 0
2 5 23 0
-2 -5 -23 0
5 13 24 0
-5 -13 -24 0
5 24 25 0
-5 -24 -25 0
3 6 23 0
-3 -6 -23 0
6 14 24 0
-6 -14 -24 0
6 25 0
-6 -25 0
4 7 23 0
-4 -7 -23 0
7 15 24 0
-7 -15 -24 0
7 25 26 0
-7 -25 -26 0
5 8 23 0
-5 -8 -23 0
8 16 24 0
-8 -16 -24 0
8 25 27 0
-8 -25 -27 0
6 9 23 0
-6 -9 -23 0
9 17 24 0
-9 -17 -24 0
7 10 23 0
-7 -10 -23 0
10 18 24 0
-10 -18 -24 0
8 11 23 0
-8 -11 -23 0
11 19 24 0
-11 -19 -24 0
9 12 23 0
-9 -12 -23 0
12 20 24 0
-12 -20 -24 0
10 13 23 0
-10 -13 -23 0
13 21 24 0
-13 -21 -24 0
11 14 23 0
-11 -14 -23 0
14 22 24 0
-14 -22 -24 0
1 15 22 0
-1 -15 -22 0
12 15 23 0
-12 -15 -23 0
15 23 24 0
-15 -23 -24 0
2 16 22 0
-2 -16 -22 0
13 16 23 0
-13 -16 -23 0
16 24 0
-16 -24 0
3 17 22 0
-3 -17 -22 0
14 17 23 0
-14 -17 -23 0
17 24 25 0
-17 -24 -25 0
4 18 22 0
-4 -18 -22 0
15 18 23 0
-15 -18 -23 0
18 24 26 0
-18 -24 -26 0
5 19 22 0
-5 -19 -22 0
16 19 23 0
-16 -19 -23 0
19 24 27 0
-19 -24 -27 0
6 20 22 0
-6 -20 -22 0
17 20 23 0
-17 -20 -23 0
7 21 22 0
-7 -21 -22 0
18 21 23 0
-18 -21 -23 0
8 22 0
-8 -22 0
19 22 23 0
-19 -22 -23 0
9 22 23 0
-9 -22 -23 0
20 23 0
-20 -23 0
10 22 24 0
-10 -22 -24 0
21 23 24 0
-21 -23 -24 0
11 22 25 0
-11 -22 -25 0
22 23 25 0
-22 -23 -25 0
1 21 26 0
-1 -21 -26 0
12 22 26 0
-12 -22 -26 0
23 26 0
-23 -26 0
2 21 27 0
-2 -21 -27 0
13 22 27 0
-13 -22 -27 0
23 24 27 0
-23 -24 -27 0
