certificates/rado_a11_c256_N27.drat
-25 23 -27 0
23 -27 0
d -25 23 -27 0
-27 0
25 -23 0
-23 0
20 0
26 0
24 0
-16 0
-18 0
-12 0
13 0
19 0
15 0
21 0
9 0
-5 0
0
